; Hacker's delight 02, difficulty 5
; Test if unsigned int is of form 2^n - 1

(set-logic BV)

(define-fun hd02 ((x (BitVec 32))) (BitVec 32) (bvand x (bvadd x #x00000001)))

(synth-fun f ((x (BitVec 32))) (BitVec 32)
    ((Start (BitVec 32) ((bvnot Start)
						 (bvxor Start Start)
						 (bvand Start Start)
						 (bvor Start Start)
						 (bvneg Start)
						 (bvadd Start Start)
						 (bvmul Start Start)
						 (bvudiv Start Start)
						 (bvurem Start Start)
						 (bvlshr Start Start)
						 (bvashr Start Start)
						 (bvshl Start Start)
						 (bvsdiv Start Start)
						 (bvsrem Start Start)
						 (bvsub Start Start)
                         x
						 #x00000000
						 #xFFFFFFFF
                         #x00000001))))

(declare-var x (BitVec 32))
(constraint (= (hd02 x) (f x)))
(check-synth)

